1584252
51,32,56,17,9,43,52,36,61,38,50,34,67,7,14,57,8,16,26,44,64,12,46,53,0,11,41,31,55,39,4,18,48,22,59,28,24,29,40,5,10,65,25,54,33,45,42,6,66,63,37,20,2,60,23,3,19,47,1,62,15,58,35,49,27,30,21,13
